c --- [ banner ] -------------------------------------------------------------
c 
c CaDiCaL Radically Simplified CDCL SAT Solver
c Copyright (c) 2016-2021 A. Biere, M. Fleury, N. Froleyks
c 
c Version 1.5.2 a5f15211db36c3956764e18194dd5bd63bf3b5e6
c g++ (GCC) 9.3.0 -Wall -Wextra -O3 -DNDEBUG
c Fri Oct 21 01:27:37 EDT 2022 Linux gra-login3 3.10.0-1160.66.1.el7.x86_64 x86_64
c 
c --- [ limit ] --------------------------------------------------------------
c 
c setting conflict limit to 200000 conflicts (due to '200000')
c 
c --- [ parsing input ] ------------------------------------------------------
c 
c reading DIMACS file from '45.cubes156.adj'
c opening file to read '45.cubes156.adj'
c found 'p cnf 6160 1595485' header
c parsed 1595485 clauses in 18.17 seconds process time
c closing file '45.cubes156.adj'
c after reading 1457566846 bytes 1390.0 MB
c 
c --- [ options ] ------------------------------------------------------------
c 
c all options are set to their default value
c 
c --- [ solving ] ------------------------------------------------------------
c 
c time measured in process time since initialization
c 
c  seconds    reductions  redundant   irredundant
c          MB     restarts       trail       variables
c            level   conflicts       glue         remaining
c 
c * 18.17 1395  0 0   0    0    0  0% 0 1595422 2177 35%
c { 18.76 1431  0 0   0    0    0  0% 0 1595422 2177 35%
c i 20.09 1480 1197 0   0   15   14 39% 3 1595422 2174 35%
c i 21.04 1498 1092 0   2   33   29 39% 5 1595422 2168 35%
c i 23.92 1529 454 0  19   94   85 31% 19 1595422 2167 35%
c i 24.11 1529 429 0  21  100   89 31% 19 1595422 2160 35%
c i 24.89 1534 339 0  31  133  119 30% 25 1595422 2159 35%
c i 25.98 1539 227 0  38  215  186 28% 24 1595422 2158 35%
c - 31.37 1520 185 1  51  301  264 28% 25 506326 2158 35%
c i 31.47 1494 185 1  51  302  264 28% 24 506326 2157 35%
c i 32.23 1387 171 1  58  347  305 28% 25 506326 2156 35%
c i 32.57 1388 164 1  65  370  326 28% 25 506326 2147 35%
c i 33.01 1389 155 1  74  414  361 28% 26 506326 2146 35%
c i 33.29 1389 139 1  78  474  415 28% 26 506326 2145 35%
c i 33.45 1389 132 1  79  514  450 28% 26 506326 2144 35%
c i 33.99 1390 108 1  98  692  599 28% 27 506326 2143 35%
c i 34.10 1390 99 1  98  771  661 29% 26 506326 2142 35%
c i 34.53 1390 87 1 102  958  802 29% 25 506326 2141 35%
c i 34.55 1390 87 1 102  972  814 29% 26 506326 2140 35%
c } 34.77 1390 87 1 107 1002  839 29% 26 506326 2140 35%
c 
c  seconds    reductions  redundant  irredundant
c          MB     restarts       trail      variables
c            level   conflicts       glue        remaining
c 
c [ 34.77 1390  0 1 107 1002  839  0% 0 506326 2140 35%
c O 34.77 1390  1 1 107 1003  839 15% 0 506326 2140 35%
c i 34.77 1390  1 1 107 1003  839 15% 0 506326 2123 34%
c i 35.06 1390 25 1 107 1170  982 35% 23 506326 2122 34%
c i 35.08 1390 25 1 107 1175  986 35% 23 506326 2121 34%
c i 35.11 1390 24 1 107 1215 1015 35% 21 506326 2120 34%
c i 35.12 1390 24 1 107 1222 1018 34% 21 506326 2119 34%
c - 35.94 1535 22 2 107 1323  999 34% 20 396327 2119 34%
c i 36.34 1535 20 2 107 1627 1233 33% 18 396327 2118 34%
c - 37.08 1534 21 3 108 2762 1343 32% 18 396324 2118 34%
c ] 37.52 1534 22 3 108 3002 1506 48% 19 396324 2118 34%
c { 37.52 1534 87 3 108 3002 1506 84% 26 396324 2118 34%
c F 37.55 1534 87 3 109 3004 1508 84% 26 396324 2118 34%
c i 38.67 1534 75 3 118 3342 1793 73% 25 396324 2117 34%
c i 38.94 1534 60 3 118 3855 2105 66% 22 396324 2116 34%
c i 38.96 1534 59 3 118 3869 2114 65% 22 396324 2115 34%
c i 38.96 1534 59 3 118 3884 2120 65% 22 396324 2114 34%
c - 39.74 1533 47 4 119 4679 1923 60% 20 396312 2114 34%
c 2 40.68 1533 45 4 131 5000 2690 58% 20 396304 2110 34%
c p 46.39 1533 45 4 131 5000 3847 58% 20 396304 2078 34%
c 
c  seconds    reductions  redundant   irredundant
c          MB     restarts       trail       variables
c            level   conflicts       glue         remaining
c 
c d 46.84 1533 45 4 131 5000 3828 58% 20 396217 2077 34%
c # 47.74 1533 39 4 150 6005 4500 55% 19 396217 2077 34%
c } 48.16 1533 35 4 155 7003 5225 53% 18 396217 2077 34%
c [ 48.16 1533 22 4 155 7003 5225 48% 19 396217 2077 34%
c - 48.44 1391 22 5 155 7076 2742 48% 19 396217 2077 34%
c - 49.23 1391 24 6 157 9952 3284 46% 20 396217 2077 34%
c I 49.41 1391 24 6 157 10006 3319 46% 20 396217 2077 34%
c - 54.68 1391 45 7 159 13308 4329 44% 33 396217 2077 34%
c p 59.60 1391 51 7 160 15000 7542 43% 36 396217 2077 34%
c ] 59.74 1391 51 7 160 15005 7547 43% 36 396217 2077 34%
c { 59.74 1391 35 7 160 15005 7547 53% 18 396217 2077 34%
c B 59.77 1391 35 7 160 15008 7550 53% 18 396217 2077 34%
c - 64.55 1393 33 8 260 17143 5289 50% 19 396217 2077 34%
c s 80.35 1393 38 8 631 19035 6723 49% 22 393399 2077 34%
c v 87.12 1393 38 8 631 19035 6723 49% 22 393396 2077 34%
c w 87.31 1393 38 8 631 19035 6717 49% 22 393396 2077 34%
c t 87.33 1393 38 8 631 19035 6711 49% 22 393391 2077 34%
c e 88.55 1394 38 8 631 19035 6140 49% 22 390976 740 12%
c s 88.69 1394 38 8 631 19035 6139 49% 22 387069 740 12%
c W 95.63 1394 35 8 690 21009 7490 71% 20 387069 740 12%
c 
c  seconds    reductions   redundant   irredundant
c          MB     restarts        trail       variables
c            level    conflicts       glue        remaining
c 
c - 96.75 1394 34 9 690 21457 5882 71% 20 387069 740 12%
c - 105.78 1394 31 10 813 26221 6739 70% 19 387069 740 12%
c F 109.08 1394 30 10 888 28010 7887 70% 18 387069 740 12%
c p 115.48 1394 30 10 1026 30001 10730 70% 19 387069 740 12%
c } 115.92 1394 29 10 1027 31006 11345 71% 18 387069 740 12%
c [ 115.92 1394 51 10 1027 31006 11345 123% 36 387069 740 12%
c - 116.21 1394 49 11 1027 31461 7134 121% 35 387069 740 12%
c B 117.69 1394 40 11 1030 36011 9598 103% 30 387069 740 12%
c - 118.66 1394 40 12 1030 37179 7214 101% 30 387069 740 12%
c - 121.99 1394 38 13 1034 43373 8730 91% 29 387069 740 12%
c W 124.41 1394 38 13 1034 45014 9891 89% 29 387069 740 12%
c p 127.19 1394 36 13 1035 50001 15004 86% 28 387069 740 12%
c - 127.52 1394 36 14 1035 50041 8865 86% 28 387069 740 12%
c O 129.40 1394 35 14 1036 55018 12343 84% 28 387069 740 12%
c - 130.31 1395 34 15 1038 57186 9337 83% 27 387069 740 12%
c ] 131.91 1395 32 15 1042 63006 13204 81% 26 387069 740 12%
c { 131.91 1395 29 15 1042 63006 13204 71% 18 387069 740 12%
c - 136.14 1395 29 16 1202 64808 9878 71% 19 387069 740 12%
c B 137.08 1395 29 16 1211 66019 10715 71% 18 387069 740 12%
c - 141.94 1395 27 17 1375 72907 10225 71% 18 387069 740 12%
c 
c  seconds     reductions      redundant   irredundant
c           MB      restarts          trail       variables
c             level      conflicts        glue        remaining
c 
c p 144.45 1395 26 17 1421 75006 13439 71% 18 387069 740 12%
c W 148.74 1395 26 17 1669 78022 15497 71% 18 387069 740 12%
c - 152.32 1395 26 18 1828 81482 11503 70% 18 387069 740 12%
c - 158.34 1395 24 19 1935 90532 11642 71% 17 387069 740 12%
c # 160.68 1395 24 19 2045 91023 12058 71% 17 387069 740 12%
c - 174.92 1395 24 20 2671 100058 12553 70% 17 387069 740 12%
c p 182.33 1395 24 20 2894 105008 17851 70% 18 387069 740 12%
c B 182.68 1395 24 20 2898 105026 17863 70% 18 387069 740 12%
c - 189.01 1395 24 21 3218 110062 13799 70% 17 387069 740 12%
c W 200.84 1395 23 21 3502 120028 20081 71% 17 387069 740 12%
c - 201.40 1395 23 22 3507 120541 14284 71% 17 387069 740 12%
c } 209.65 1395 23 22 3831 127007 18237 71% 17 387069 740 12%
c [ 209.65 1395 32 22 3831 127007 18237 81% 26 387069 740 12%
c - 211.60 1395 32 23 3832 131497 14997 80% 26 387069 740 12%
c B 213.07 1395 31 23 3836 136030 17969 79% 25 387069 740 12%
c 3 214.21 1395 30 23 3838 140008 20704 78% 25 387069 740 12%
c p 216.25 1395 30 23 3838 140008 22567 78% 25 387069 740 12%
c - 217.42 1395 30 24 3838 142930 15528 78% 24 387069 740 12%
c W 220.78 1395 29 24 3840 153031 22091 77% 24 387069 740 12%
c - 221.38 1395 29 25 3840 154839 16162 77% 24 387069 740 12%
c 
c  seconds     reductions       redundant   irredundant
c           MB      restarts           trail       variables
c             level      conflicts         glue        remaining
c 
c - 225.60 1395 31 26 3840 167224 18294 76% 26 387069 740 12%
c I 226.72 1395 32 26 3843 171033 21365 76% 27 387069 740 12%
c p 235.84 1395 33 26 3847 180008 29807 75% 27 387069 740 12%
c - 236.38 1395 33 27 3847 180085 18474 75% 27 387069 740 12%
c s 236.65 1395 33 27 3847 180085 18471 75% 27 381719 740 12%
c v 247.39 1395 33 27 3847 180085 18471 75% 27 381671 740 12%
c w 247.95 1395 33 27 3847 180085 18470 75% 27 381671 740 12%
c t 247.96 1395 33 27 3847 180085 18468 75% 27 381671 740 12%
c s 249.39 1396 33 27 3847 180085 18468 75% 27 378228 740 12%
c B 256.87 1396 33 27 3854 190034 25383 74% 28 378228 740 12%
c - 258.28 1396 33 28 3855 193426 19200 74% 28 378228 740 12%
c ] 260.57 1396 34 28 3855 200002 23919 74% 28 378228 740 12%
c ? 260.57 1396 34 28 3855 200002 23919 74% 28 378228 740 12%
c 
c --- [ writing output ] -----------------------------------------------------
c 
c writing simplified CNF to DIMACS file 'simp/45.cubes156.adj.simp1'
c * 260.57 1396 34 28 3855 200002 23919 74% 28 378228 740 12%
c opening file to write 'simp/45.cubes156.adj.simp1'
c writing 'p cnf 6160 378228' header
c closing file 'simp/45.cubes156.adj.simp1'
c after writing 157028942 bytes 149.8 MB
c wrote 378228 clauses in 1.45 seconds process time
c 
c --- [ writing extension ] --------------------------------------------------
c 
c writing extension stack to 'simp/45.cubes156.adj.ext1'
c opening file to write 'simp/45.cubes156.adj.ext1'
c closing file 'simp/45.cubes156.adj.ext1'
c after writing 89125 bytes 0.1 MB
c wrote 3998 witnesses in 0.00 seconds process time
c 
c --- [ result ] -------------------------------------------------------------
c 
c UNKNOWN
c 
c --- [ run-time profiling ] -------------------------------------------------
c 
c process time taken by individual solving procedures
c (percentage relative to process time for solving)
c 
c       198.92   82.06% search
c       135.23   55.79% unstable
c        57.55   23.74% stable
c        43.48   17.94% simplify
c        18.22    7.52% probe
c        18.19    7.50% vivify
c        18.17    7.50% parse
c         5.55    2.29% walk
c         4.50    1.86% elim
c         0.84    0.35% subsume
c         0.59    0.24% lucky
c         0.36    0.15% ternary
c   =================================
c       242.40   92.51% solve
c 
c last line shows process time for solving
c (percentage relative to total process time)
c 
c --- [ statistics ] ---------------------------------------------------------
c 
c chronological:             33657        16.83 %  of conflicts
c conflicts:                200002       825.09    per second
c decisions:                382726      1578.91    per second
c eliminated:                 1337        21.70 %  of all variables
c fixed:                       934        15.16 %  of all variables
c learned:                  196093        98.05 %  per conflict
c learned_lits:           29710207       100.00 %  learned literals
c minimized:                     0         0.00 %  learned literals
c shrunken:               18539006        62.40 %  learned literals
c minishrunken:            2166702         7.29 %  learned literals
c propagations:           12649923         0.05 M  per second
c reduced:                  111713        55.86 %  per conflict
c rephased:                     19     10526.42    interval
c restarts:                   3855        51.88    interval
c stabilizing:                   4        57.50 %  of conflicts
c substituted:                   5         0.08 %  of all variables
c subsumed:                  75502         2.08 %  of all clauses
c strengthened:               6567         0.18 %  of all clauses
c ternary:                    3262         0.63 %  of resolved
c vivified:                     85         0.00 %  of all clauses
c walked:                        5     40000.40    interval
c weakened:                   3064         3.08    average size
c 
c seconds are measured in process time for solving
c 
c --- [ resources ] ----------------------------------------------------------
c 
c total process time since initialization:       262.02    seconds
c total real time since initialization:         4001.29    seconds
c maximum resident set size of process:         1678.22    MB
c 
c --- [ shutting down ] ------------------------------------------------------
c 
c exit 0
WARNING! DIMACS header mismatch: wrong number of variables.
============================[ Problem Statistics ]=============================
|                                                                             |
|  Number of variables:          3498                                         |
|  Number of clauses:          378228                                         |
|  Parse time:                   2.14 s                                       |
|  Simplification time:          0.06 s                                       |
|                                                                             |
============================[ Search Statistics ]====================================================
| Conflicts |          ORIGINAL         |          LEARNT          | Num Sols |      SUBGRAPHS      |
|           |    Vars  Clauses Literals |    Limit  Clauses Lit/Cl |          | Canonical Noncanon. |
=====================================================================================================
|       100 |    3397   378228 34093459 |     2000      100     98 |        0 |        14         0 |
|       250 |    3397   378228 34093459 |     2000      250    107 |        0 |        24         0 |
|       475 |    3397   378228 34093459 |     2000      475    105 |        0 |        28         0 |
|       813 |    3397   378229 34093470 |     2000      813     97 |        0 |        40         1 |
|      1327 |    3397   378237 34093735 |     2000     1327     96 |        0 |        52         9 |
|      2128 |    3397   378279 34094393 |     3605     1133     50 |        0 |        84        51 |
|      3322 |    3397   378334 34095296 |     3605     2327     62 |        0 |        92       106 |
|      5233 |    3397   378537 34098298 |     5006     2439     42 |        0 |       155       309 |
|     10547 |    3397   381289 34145347 |     6306     5253     34 |        0 |      1635      3061 |
|     21984 |    3397   388882 34259449 |     9991     5375     25 |        0 |      5388     10654 |
|     27866 |    3397   388998 34261437 |    11199     6265     28 |        0 |      5440     10770 |
|     40043 |    3397   392526 34327928 |    13615     6658     17 |        0 |      7137     14298 |
|     55182 |    3397   394691 34368274 |    16008     7590     13 |        0 |      7877     16463 |
|     74963 |    3397   395011 34374927 |    18408    10771     27 |        0 |      7980     16783 |
|    104370 |    3397   395226 34379784 |    22012    10782     18 |        0 |      8060     16998 |
|    148247 |    3397   395314 34381783 |    25605    19852     48 |        0 |      8126     17086 |
|    214144 |    3397   395527 34386961 |    31618    15762     24 |        0 |      8160     17299 |
|    313665 |    3397   396522 34403955 |    37625    30290     45 |        0 |      8381     18294 |
|    461968 |    3397   397036 34418556 |    46020    34388     47 |        0 |      8634     18808 |
|    684425 |    3397   397810 34437152 |    56808    28233     29 |        0 |      8814     19582 |
|   1018690 |    3397   399550 34472807 |    68817    51507     47 |        0 |      9276     21322 |
|   1520671 |    3397   402743 34545643 |    84436    59507     45 |        0 |     10047     24515 |
|   2272971 |    3397   406861 34659877 |   103613    64584     37 |        0 |     11518     28633 |
|   3399542 |    3397   411158 34781484 |   126423   104365     50 |        0 |     12502     32930 |
|   5086470 |    3397   414675 34883243 |   155227   108897     45 |        0 |     13091     36447 |
|   7615848 |    3397   418937 35003041 |   190016   144264     44 |        0 |     13646     40709 |
|  11409841 |    3397   425255 35187650 |   233214   140255     35 |        0 |     14441     47027 |
|  17100573 |    3397   434475 35496082 |   284825   275398     55 |        0 |     16192     56247 |
|  25636958 |    3396   448588 35942527 |   349631   263589     42 |        3 |     18704     70360 |
|  38437679 |    3396   465906 36426709 |   428818   240497     29 |        3 |     21340     87678 |
|  57637792 |    3389   475692 36613431 |   524834   392626     44 |        3 |     26384    112686 |
=====================================================================================================
Number of solutions   : 3
Canonical subgraphs   : 34943          (8 /sec)
          order  3    : 1              (200000 /sec)
          order  4    : 1              (1000000 /sec)
          order  5    : 1              (250000 /sec)
          order  6    : 1              (55556 /sec)
          order  7    : 1              (8850 /sec)
          order  8    : 1              (1002 /sec)
          order  9    : 2              (150 /sec)
          order 10    : 7              (37 /sec)
          order 11    : 32             (11 /sec)
          order 12    : 121            (4 /sec)
          order 13    : 786            (4 /sec)
          order 14    : 5344           (8 /sec)
          order 15    : 12078          (9 /sec)
          order 16    : 16329          (8 /sec)
          order 17    : 123            (7 /sec)
          order 18    : 59             (7 /sec)
          order 19    : 25             (6 /sec)
          order 20    : 14             (7 /sec)
          order 21    : 14             (7 /sec)
          order 22    : 3              (0 /sec)
Noncanonical subgraphs: 137832         (212 /sec)
          order  3    : 0              (-nan /sec)
          order  4    : 0              (-nan /sec)
          order  5    : 0              (-nan /sec)
          order  6    : 0              (-nan /sec)
          order  7    : 0              (-nan /sec)
          order  8    : 0              (-nan /sec)
          order  9    : 0              (-nan /sec)
          order 10    : 0              (-nan /sec)
          order 11    : 0              (-nan /sec)
          order 12    : 0              (-nan /sec)
          order 13    : 2576           (6661 /sec)
          order 14    : 16336          (2597 /sec)
          order 15    : 87020          (495 /sec)
          order 16    : 9110           (443 /sec)
          order 17    : 22756          (51 /sec)
          order 18    : 16             (43 /sec)
          order 19    : 7              (23 /sec)
          order 20    : 0              (-nan /sec)
          order 21    : 0              (-nan /sec)
Canonicity checking   : 4348.14 s
Noncanonicity checking: 649.188 s
Total canonicity time : 4997.33 s
database reductions   : 475
restarts              : 90106
conflicts             : 68562899       (1594 /sec)
decisions             : 85603757       (0.00 % random) (1990 /sec)
propagations          : 3237300475     (75254 /sec)
conflict literals     : 5895975519     (57.83 % deleted)
actual reward         : 0.269094
Memory used           : 706.00 MB
CPU time              : 43018.2 s

UNSATISFIABLE
